&BANDS
  outdir='/tmp/CrO/'
  prefix='CrO',
  filband = 'CrO_bands_U_occ.dat'
/
