&BANDS
  outdir='/tmp/CrO/'
  prefix='CrO',
  filband = 'CrO_bands.dat'
/
