&CONTROL
  calculation = 'scf'
  restart_mode = 'from_scratch'
  etot_conv_thr =   1.5000000000d-04
  outdir = '/hpctmp/slspkd/bi2se3-01/'
  prefix = 'bi2se3-01'
  pseudo_dir = '../pseudo/'
  verbosity = 'high'
/

&SYSTEM
  degauss =   7.3498618000d-03
  ecutrho =   4.8000000000d+02
  ecutwfc =   8.0000000000d+01
  ibrav = 4
  celldm(1) = 7.819686140739584
  celldm(3) = 6.882551957467376 
  nat = 15
  ntyp = 2
  occupations = 'smearing'
  smearing = 'cold'
/

&ELECTRONS
  conv_thr =   3.0000000000d-09
  electron_maxstep = 80
  mixing_beta =   2.0000000000d-01
/

ATOMIC_SPECIES
Bi     208.9804    Bi.NC.SR.PBEsol.stringent.UPF
Se     78.96       Se.NC.SR.PBEsol.stringent.UPF

ATOMIC_POSITIONS crystal
Bi     0.000000000         0.000000000         0.398999989
Bi     0.000000000         0.000000000         0.601000011
Bi     0.666666687         0.333333343         0.732333302
Bi     0.666666687         0.333333343         0.934333324
Bi     0.333333343         0.666666687         0.065666653
Bi     0.333333343         0.666666687         0.267666668
Se     0.000000000         0.000000000         0.000000000
Se     0.666666687         0.333333343         0.333333343
Se     0.333333343         0.666666687         0.666666687
Se     0.000000000         0.000000000         0.206000000
Se     0.000000000         0.000000000         0.794000030
Se     0.666666687         0.333333343         0.539333344
Se     0.666666687         0.333333343         0.127333328
Se     0.333333343         0.666666687         0.872666657
Se     0.333333343         0.666666687         0.460666656

K_POINTS automatic
12 12 2 0 0 0
