&BANDS
  prefix = 'al'
  outdir = './tmp/'
  filband = 'al.bands.dat'
/

