&DOS 
  prefix= 'al', 
  outdir= './tmp/', 
  fildos= 'al.dos.dat', 
  emin= -10, 
  emax= 35 
/ 

