&PROJWFC 
  prefix= 'al', 
  outdir= './tmp/',  
  filpdos= 'al.pdos.dat' 
/

