&PROJWFC 
  prefix= 'al', 
  outdir= './tmp/', 
  lwrite_overlaps= .true, 
  filpdos= 'al.pdos.dat' 
/

