&BANDS
  prefix = 'al'
  outdir = '/tmp/'
  filband = 'al_bands.dat'
/
