&CONTROL
  calculation= 'bands',
  restart_mode= 'from_scratch',
  prefix= 'al',
  outdir= './tmp/',
  pseudo_dir= './'
/

&SYSTEM
  ibrav= 2,
  celldm(1) = 7.63075,
  nat= 1,
  ntyp= 1,
  ecutwfc= 50,
  ecutrho= 500,
  occupations= 'smearing',
  smearing= 'gaussian',
  degauss= 0.01
/

&ELECTRONS
  conv_thr= 1e-8
/

ATOMIC_SPECIES
  Al 26.981539 Al.pbe-n-rrkjus_psl.1.0.0.UPF

ATOMIC_POSITIONS (alat)
  Al 0.00 0.00 0.00

K_POINTS {crystal_b}
5
  00.000 0.500 00.000 20  !L
  00.000 0.000 00.000 30  !G
  -0.500 0.000 -0.500 10  !X
  -0.375 0.250 -0.375 30  !U
  00.000 0.000 00.000 20  !G
