&DOS
  prefix= 'al',
  outdir= './tmp/',
  fildos= 'al_dos.dat',
  emin= -10,
  emax= 35
/
