&PROJWFC
  prefix= 'al',
  outdir= './tmp/',
  filpdos= 'al_pdos.dat'
/
