&control
  calculation = "bands",
  prefix = "cu",
  pseudo_dir = "../pseudos/",
  outdir = "/tmp/cu/"
/

&system
  ibrav = 2,
  celldm(1) = 6.678,
  nat = 1,
  ntyp = 1,
  ecutwfc = 40,
  ecutrho = 300,
  occupations = "smearing",
  smearing = "mp",
  degauss = 0.01,
  nbnd = 16
/

&electrons
  conv_thr = 1e-9,
/

ATOMIC_SPECIES
Cu 63.546 Cu_ONCV_PBE-1.0.oncvpsp.upf

ATOMIC_POSITIONS alat
Cu 0.00 0.00 0.00

K_POINTS automatic
30 30 30 0 0 0
