 &BANDS
    prefix = 'silicon'
    outdir = './tmp/'
    filband = 'bands.dat'
 /
