&CONTROL
! we want to perform self consistent field calculation
  calculation = 'scf',

! prefix is reference to the output files
  prefix = 'silicon',

! output directory. Note that it is deprecated.
  outdir = './tmp/'

! directory for the pseudo potential directory
  pseudo_dir = '../pseudos/'

! verbosity high will give more details on the output file
  verbosity = 'high'
/

&SYSTEM
! Bravais lattice index, which is 2 for FCC structure
  ibrav =  2,

! Lattice constant in BOHR
  celldm(1) = 10.26,

! number of atoms in an unit cell
  nat =  2,

! number of different types of atom in the cell
  ntyp = 1,

! kinetic energy cutoff for wavefunction in Ry
  ecutwfc = 30

! number of bands to calculate
  nbnd = 8
/

&ELECTRONS
! Mixing factor used in the self-consistent method
  mixing_beta = 0.6
/

ATOMIC_SPECIES
  Si 28.086 Si.pz-vbc.UPF

ATOMIC_POSITIONS (alat)
  Si 0.0 0.0 0.0
  Si 0.25 0.25 0.25

K_POINTS (automatic)
  6 6 6 0 0 0
