&BANDS
  prefix = 'silicon'
  outdir = './tmp/'
  filband = 'si.bands.dat'
/

