&control
    calculation = 'scf',
    prefix = 'silicon',
    outdir = './tmp/'
    pseudo_dir = './'
    verbosity = 'high'
 /
&system
    ibrav =  2,
    celldm(1) = 10.26,
    nat =  2,
    ntyp = 1,
    ecutwfc = 25
    nbnd = 8
 /
&electrons
    mixing_beta = 0.6
 /

ATOMIC_SPECIES
 Si 28.086  Si.pz-vbc.UPF

ATOMIC_POSITIONS (alat)
 Si 0.0 0.0 0.0
 Si 0.25 0.25 0.25

K_POINTS (automatic)
  6 6 6 1 1 1
