&BANDS
  prefix = 'silicon'
  outdir = './tmp/'
  filband = 'si_bands.dat'
/
