&bands
   outdir = './tmp/',
   prefix='GaAs',
   filband='GaAs.bands.dat',
   lsym=.true.
/

