&bands
   outdir = '/tmp/',
   prefix = 'GaAs',
   filband= 'GaAs_bands.dat',
   lsym=.true.
/
