&control
  calculation = 'vc-relax'
  prefix      = 'GaAs'
  outdir      = '/tmp/',
  pseudo_dir  = '../pseudos/',
/

&system
  ibrav = 2
  celldm(1) = 10.6867
  nat = 2
  ntyp = 2
  ecutwfc = 60
  ecutrho = 244
/

&electrons
  mixing_mode = 'plain'
  mixing_beta = 0.7
  conv_thr = 1.0e-8
/

&ions
/

&cell
  cell_dofree= 'ibrav'
/

ATOMIC_SPECIES
  Ga 69.723 Ga.pbe-dn-kjpaw_psl.1.0.0.UPF
  As 74.921595 As.pbe-n-kjpaw_psl.1.0.0.UPF

ATOMIC_POSITIONS
  Ga 0.00 0.00 0.00
  As 0.25 0.25 0.25

K_POINTS {automatic}
  8 8 8 0 0 0
