&inputpp
  prefix = 'h2o'
  fileout = 'h2o.axsf'
  lcharge = .FALSE.
  lforces = .FALSE.
  ldynamics = .TRUE.
  nframes = 100
  nsp = 2
  nat(1) = 1
  nat(2) = 2
  species(1) = 1
  species(2) = 16
/
