&control
  calculation = 'scf'
  prefix = 'GaAs'
  pseudo_dir = '../pseudos/'
  outdir = './tmp/'
  verbosity = 'high'
  wf_collect = .true.
/

&system
  ibrav = 2
  celldm(1) = 10.861462
  nat = 2
  ntyp = 2
  ecutwfc = 80
  ecutrho = 640
/

&electrons
  mixing_mode = 'plain'
  mixing_beta = 0.7
  conv_thr = 1.0e-8
/

ATOMIC_SPECIES
  Ga 69.723    Ga.pbe-dn-kjpaw_psl.1.0.0.UPF
  As 74.921595 As.nc.z_15.oncvpsp3.dojo.v4-std.upf

ATOMIC_POSITIONS
  Ga 0.00 0.00 0.00
  As 0.25 0.25 0.25

K_POINTS {automatic}
  8 8 8 0 0 0
