&INPUT
  fildyn = 'GaAs.dyn'
  zasr = 'crystal'
  flfrc = 'GaAs.fc'
/
