&inputhp
   prefix = 'CoO'
   outdir = '/tmp/CoO/'
   nq1 = 2,
   nq2 = 2,
   nq3 = 2
   conv_thr_chi = 1.0d-6 ! we can reduce it down to 1.0d-8
/
