&control
  calculation='vc-relax'
  prefix='CoO'
  pseudo_dir = '../pseudos/'
  outdir='/tmp/CoO/'
  verbosity='high'
  etot_conv_thr = 1.0D-4
  forc_conv_thr = 1.0D-3
/

&system
  ibrav = 0,
  celldm(1) = 8.00,
  nat = 4,
  ntyp = 3,
  ecutwfc = 50.0
  ecutrho = 400.0
  nspin = 2
  starting_magnetization(1) =  0.5,
  starting_magnetization(2) = -0.5,
  occupations = 'smearing',
  smearing = 'mv',
  degauss = 0.02
/

&electrons
  conv_thr =  1.d-10
/

&IONS
  ion_dynamics = 'bfgs'
/

&CELL
  cell_dynamics = 'bfgs'
/

ATOMIC_SPECIES
  Co1  58.933194  Co_pbesol_v1.2.uspp.F.UPF
  Co2  58.933194  Co_pbesol_v1.2.uspp.F.UPF
  O    15.999     O.pbesol-n-kjpaw_psl.0.1.UPF

ATOMIC_POSITIONS {crystal}
  Co1      0.00000000     0.00000000     0.00000000
  Co2      0.50000000     0.50000000     0.50000000
  O        0.25000000     0.25000000     0.25000000
  O        0.75000000     0.75000000     0.75000000

CELL_PARAMETERS {alat}
  0.504866135   0.504866135   1.010600690
  0.504866135   1.010600690   0.504866135
  1.010600690   0.504866135   0.504866135

K_POINTS {automatic}
 6 6 6 0 0 0

HUBBARD {ortho-atomic}
U Co1-3d  6.2469
U Co2-3d  6.2469
