&BANDS
    outdir='./tmp/',
    prefix='fe',
    filband='fe_bands_soc.dat',
/
