&control
   calculation='scf'
   pseudo_dir = '../pseudos/',
   outdir='./tmp/'
   prefix='fe'
/

&system
   ibrav = 3,
   celldm(1) = 5.39,
   nat= 1,
   ntyp= 1,
   nspin = 2
   starting_magnetization(1)=0.3,
   ecutwfc = 70,
   ecutrho = 850.0,
   occupations='smearing',
   smearing='marzari-vanderbilt',
   degauss=0.02
/

&electrons
   diagonalization='david'
   conv_thr = 1.0e-8
   mixing_beta = 0.7
/

ATOMIC_SPECIES
Fe 55.845 Fe.pbe-spn-rrkjus_psl.1.0.0.UPF

ATOMIC_POSITIONS alat
Fe 0.0 0.0 0.0

K_POINTS AUTOMATIC
14 14 14 1 1 1
