&control
    calculation   = 'relax'
    prefix        = 'h2o'
    outdir        = './tmp/'
    pseudo_dir    = '../pseudos/'
    etot_conv_thr = 1e-6
    forc_conv_thr = 1e-5
/

&system
    ibrav     = 1
    celldm(1) = 15
    nat       = 3
    ntyp      = 2
    ecutwfc   = 40
/

&electrons
    conv_thr = 1e-8
/

&ions
    ion_dynamics = 'bfgs'
/

ATOMIC_SPECIES
 H  1.00784  H_ONCV_PBE-1.0.oncvpsp.upf
 O  15.999   O.pbe-n-kjpaw_psl.0.1.UPF

! move the atom to the center of the cube for nicer visualization
ATOMIC_POSITIONS (angstrom)
 O     5.000000     5.000000     5.000000
 H     5.000000     5.300000     5.950000
 H     5.000000     5.300000     4.050000

! Gamma point only calculation
K_POINTS (automatic)
  1 1 1 0 0 0
