&control
  calculation='scf'
  prefix='CoO'
  pseudo_dir = '../pseudos/'
  outdir='/tmp/CoO/'
/

&system
  ibrav = 0,
  celldm(1) = 8.00,
  nat = 4,
  ntyp = 3,
  ecutwfc = 35.0
  ecutrho = 280.0
  nspin = 2
  starting_magnetization(1) =  0.5,
  starting_magnetization(2) = -0.5,
  occupations = 'smearing',
  smearing = 'mv',
  degauss = 0.02,
  nbnd = 40
/

&electrons
  conv_thr =  1.d-10
/

ATOMIC_SPECIES
  Co1  58.933194  Co_pbesol_v1.2.uspp.F.UPF
  Co2  58.933194  Co_pbesol_v1.2.uspp.F.UPF
  O    15.999     O.pbesol-n-kjpaw_psl.0.1.UPF

ATOMIC_POSITIONS {crystal}
  Co1      0.00000000     0.00000000     0.00000000
  Co2      0.50000000     0.50000000     0.50000000
  O        0.25000000     0.25000000     0.25000000
  O        0.75000000     0.75000000     0.75000000

CELL_PARAMETERS {alat}
  0.570726115   0.570726115   1.031099100
  0.570726115   1.031099100   0.570726115
  1.031099100   0.570726115   0.570726115

K_POINTS {automatic}
  7 7 7 0 0 0
