&inputhp
   prefix = 'FeO'
   outdir = './tmp/'
   nq1 = 1, nq2 = 1, nq3 = 1
/
