&CONTROL
  calculation = 'nscf',
  prefix      = 'graphene',
  outdir      = '/tmp/',
  pseudo_dir  = '../pseudos/',
/

&SYSTEM
  ibrav     = 4,
  celldm(1) = 4.654,
  celldm(3) = 3.0,
  nat  = 2,
  ntyp = 1,
  ecutwfc = 40.0,
  ecutrho = 400.0,
  occupations='tetrahedra_opt'
/

&ELECTRONS
  conv_thr = 1.0d-8
/

ATOMIC_SPECIES
  C  12.0107 C.pbe-rrkjus.UPF

ATOMIC_POSITIONS alat
  C    0.000000    0.0000000   0.000000
  C    0.000000    0.5773503   0.000000

K_POINTS automatic
  12 12 1 0 0 0
