&BANDS
  prefix  = 'graphene'
  outdir  = '/tmp/'
  filband = 'graphene_bands.dat'
  lsym = .true.,
/
