&DOS
  prefix = 'graphene',
  outdir = '/tmp/'
  fildos = 'graphene_dos.dat'
/
