&BANDS
  prefix = 'silicon'
  outdir = '/tmp/silicon-gga/'
  filband = 'si_bands_gga.dat'
/
