&CONTROL
  calculation = 'scf',
  prefix = 'silicon',
  outdir = '/tmp/silicon-gga/'
  pseudo_dir = '../pseudos/'
/

&SYSTEM
  ibrav =  2,
  celldm(1) = 10.2076,
  nat =  2,
  ntyp = 1,
  ecutwfc = 50,
  ecutrho = 400,
  nbnd = 8,
/

&ELECTRONS
  conv_thr = 1e-9,
  mixing_beta = 0.5
/

ATOMIC_SPECIES
  Si 28.086 Si.pbe-n-rrkjus_psl.1.0.0.UPF

ATOMIC_POSITIONS (alat)
  Si 0.0 0.0 0.0
  Si 0.25 0.25 0.25

K_POINTS (automatic)
  9 9 9 0 0 0
